(set-logic QF_S)
(declare-fun T_8d () Bool)
(declare-fun T_8e () Bool)
(declare-fun T_SELECT_13 () Bool)
(declare-fun I0_206 () Int)
(declare-fun I0_211 () Int)
(declare-fun I0_215 () Int)
(declare-fun I1_211 () Int)
(declare-fun I1_215 () Int)
(declare-fun I2_211 () Int)
(declare-fun I2_215 () Int)
(declare-fun PCTEMP_LHS_55 () Int)
(declare-fun T_92 () Int)
(declare-fun T0_206 () String)
(declare-fun T1_206 () String)
(declare-fun T2_206 () String)
(declare-fun T3_206 () String)
(declare-fun T4_206 () String)
(declare-fun T5_206 () String)
(declare-fun T_8b () String)
(assert (= T_8b (str.++ T0_206 T1_206)))
(assert (= T1_206 (str.++ T2_206 T3_206)))
(assert (= T2_206 (str.++ T4_206 T5_206)))
(assert (not (str.in.re T4_206 (str.to.re "="))))
(assert (= T5_206 "="))
(assert T_8e)
(assert (= T_8e (not T_8d)))
(assert (= T_8d (= PCTEMP_LHS_55 (- 1))))
(assert (= I0_211 (- PCTEMP_LHS_55 0)))
(assert (>= PCTEMP_LHS_55 0))
(assert (= I2_211 I1_211))
(assert (<= PCTEMP_LHS_55 I1_211))
(assert (>= I2_215 T_92))
(assert (= I2_215 I1_215))
(assert (<= I2_215 I1_215))
(assert (= I0_215 (- I2_215 T_92)))
(assert (>= T_92 0))
(assert (= T_92 (+ PCTEMP_LHS_55 1)))
(assert (= PCTEMP_LHS_55 (+ I0_206 0)))
(assert (= T_SELECT_13 (not (= PCTEMP_LHS_55 (- 1)))))
(assert (= 0 (str.len T0_206))) ; len 0
(assert (= I0_206 (str.len T4_206))) ; len 1
(assert T_SELECT_13)
(check-sat)
